* Problem:    gr4x6-prescaled
* Class:      LP
* Rows:       34
* Columns:    72
* Non-zeros:  120
* Format:     Free MPS
*
NAME gr4x6-prescaled
ROWS
 N R0000000
 E R0000001
 E R0000002
 E R0000003
 E R0000004
 E R0000005
 E R0000006
 E R0000007
 E R0000008
 E R0000009
 E R0000010
 E R0000011
 E R0000012
 E R0000013
 E R0000014
 E R0000015
 E R0000016
 E R0000017
 E R0000018
 E R0000019
 E R0000020
 E R0000021
 E R0000022
 E R0000023
 E R0000024
 E R0000025
 E R0000026
 E R0000027
 E R0000028
 E R0000029
 E R0000030
 E R0000031
 E R0000032
 E R0000033
 E R0000034
COLUMNS
 c0 R0000000 24.15 R0000011 35
 c0 R0000005 35 R0000001 35
 c1 R0000000 22.4 R0000012 35
 c1 R0000006 35 R0000001 35
 c2 R0000000 24.85 R0000013 35
 c2 R0000007 35 R0000001 35
 c3 R0000000 27.65 R0000014 35
 c3 R0000008 35 R0000001 35
 c4 R0000000 59.5 R0000015 35
 c4 R0000009 35 R0000001 35
 c5 R0000000 99.05 R0000016 35
 c5 R0000010 35 R0000001 35
 c6 R0000000 35.35 R0000017 35
 c6 R0000005 35 R0000002 35
 c7 R0000000 26.25 R0000018 35
 c7 R0000006 35 R0000002 35
 c8 R0000000 30.8 R0000019 35
 c8 R0000007 35 R0000002 35
 c9 R0000000 20.65 R0000020 35
 c9 R0000008 35 R0000002 35
 c10 R0000000 52.5 R0000021 35
 c10 R0000009 35 R0000002 35
 c11 R0000000 92.05 R0000022 35
 c11 R0000010 35 R0000002 35
 c12 R0000000 36.75 R0000023 35
 c12 R0000005 35 R0000003 35
 c13 R0000000 37.1 R0000024 35
 c13 R0000006 35 R0000003 35
 c14 R0000000 37.8 R0000025 35
 c14 R0000007 35 R0000003 35
 c15 R0000000 22.4 R0000026 35
 c15 R0000008 35 R0000003 35
 c16 R0000000 42.7 R0000027 35
 c16 R0000009 35 R0000003 35
 c17 R0000000 82.95 R0000028 35
 c17 R0000010 35 R0000003 35
 c18 R0000000 67.9 R0000029 35
 c18 R0000005 35 R0000004 35
 c19 R0000000 52.5 R0000030 35
 c19 R0000006 35 R0000004 35
 c20 R0000000 54.6 R0000031 35
 c20 R0000007 35 R0000004 35
 c21 R0000000 42.7 R0000032 35
 c21 R0000008 35 R0000004 35
 c22 R0000000 69.3 R0000033 35
 c22 R0000009 35 R0000004 35
 c23 R0000000 69.3 R0000034 35
 c23 R0000010 35 R0000004 35
 c24 R0000000 11 R0000011 -35
 c25 R0000000 18.666666667 R0000012 -35
 c26 R0000000 25.2 R0000013 -35
 c27 R0000000 39.666666667 R0000014 -35
 c28 R0000000 70 R0000015 -35
 c29 R0000000 140 R0000016 -35
 c30 R0000000 14 R0000017 -35
 c31 R0000000 19.833333333 R0000018 -35
 c32 R0000000 23.8 R0000019 -35
 c33 R0000000 30.333333333 R0000020 -35
 c34 R0000000 105 R0000021 -35
 c35 R0000000 91 R0000022 -35
 c36 R0000000 21 R0000023 -35
 c37 R0000000 22.75 R0000024 -35
 c38 R0000000 35 R0000025 -35
 c39 R0000000 39.666666667 R0000026 -35
 c40 R0000000 91 R0000027 -35
 c41 R0000000 105 R0000028 -35
 c42 R0000000 37.333333333 R0000029 -35
 c43 R0000000 44.333333333 R0000030 -35
 c44 R0000000 35 R0000031 -35
 c45 R0000000 25.666666667 R0000032 -35
 c46 R0000000 105 R0000033 -35
 c47 R0000000 84 R0000034 -35
 c48 R0000011 35
 c49 R0000012 35
 c50 R0000013 35
 c51 R0000014 35
 c52 R0000015 35
 c53 R0000016 35
 c54 R0000017 35
 c55 R0000018 35
 c56 R0000019 35
 c57 R0000020 35
 c58 R0000021 35
 c59 R0000022 35
 c60 R0000023 35
 c61 R0000024 35
 c62 R0000025 35
 c63 R0000026 35
 c64 R0000027 35
 c65 R0000028 35
 c66 R0000029 35
 c67 R0000030 35
 c68 R0000031 35
 c69 R0000032 35
 c70 R0000033 35
 c71 R0000034 35
RHS
 RHS1 R0000001 45 R0000002 35
 RHS1 R0000003 20 R0000004 15
 RHS1 R0000005 35 R0000006 30
 RHS1 R0000007 25 R0000008 15
 RHS1 R0000009 5 R0000010 5
BOUNDS
 UP BND1 c24 1
 UP BND1 c25 0.8571428571
 UP BND1 c26 0.7142857143
 UP BND1 c27 0.4285714286
 UP BND1 c28 0.1428571429
 UP BND1 c29 0.1428571429
 UP BND1 c30 1
 UP BND1 c31 0.8571428571
 UP BND1 c32 0.7142857143
 UP BND1 c33 0.4285714286
 UP BND1 c34 0.1428571429
 UP BND1 c35 0.1428571429
 UP BND1 c36 0.5714285714
 UP BND1 c37 0.5714285714
 UP BND1 c38 0.5714285714
 UP BND1 c39 0.4285714286
 UP BND1 c40 0.1428571429
 UP BND1 c41 0.1428571429
 UP BND1 c42 0.4285714286
 UP BND1 c43 0.4285714286
 UP BND1 c44 0.4285714286
 UP BND1 c45 0.4285714286
 UP BND1 c46 0.1428571429
 UP BND1 c47 0.1428571429
ENDATA
